SDVRP instances/custom_instances/p02_2_splitx10_0.vrp
NAME:p02_2_splitx10_
BEST_KNOWN: 0
COMMENT: 0
DIMENSION: 371
CAPACITY: 1400
EDGE_WEIGHT_FORMAT: FUNCTION
EDGE_WEIGHT_TYPE: EXACT_2D
NODE_COORD_SECTION
1 0.00000 0.00000
2 20 14
3 20 14
4 20 14
5 20 14
6 -33 -47
7 -33 -47
8 -33 -47
9 -34 -41
10 -34 -41
11 -34 -41
12 -34 -41
13 -34 -41
14 -34 -41
15 -20 44
16 -20 44
17 -20 44
18 -20 44
19 -17 17
20 -17 17
21 -17 17
22 -17 17
23 -17 17
24 -17 17
25 -20 -45
26 -20 -45
27 -20 -45
28 -20 -45
29 -20 -45
30 -20 -45
31 -40 12
32 -40 12
33 -40 12
34 -40 12
35 -40 12
36 -43 35
37 -43 35
38 -43 35
39 -43 35
40 -43 35
41 -43 35
42 -45 0
43 -45 0
44 -45 0
45 -45 0
46 -45 0
47 -45 0
48 34 9
49 34 9
50 34 9
51 34 9
52 34 9
53 34 9
54 34 9
55 -2 19
56 -2 19
57 -2 19
58 -11 -22
59 -11 -22
60 -11 -22
61 -11 -22
62 -41 -38
63 -41 -38
64 -41 -38
65 -41 -38
66 -41 -38
67 -41 -38
68 16 41
69 16 41
70 16 41
71 16 41
72 16 41
73 -37 9
74 -37 9
75 -37 9
76 -37 9
77 -37 9
78 -37 9
79 -18 26
80 -18 26
81 -18 26
82 -18 26
83 -18 26
84 17 12
85 17 12
86 17 12
87 17 12
88 17 12
89 42 43
90 42 43
91 42 43
92 42 43
93 10 48
94 10 48
95 10 48
96 10 48
97 10 48
98 -6 19
99 -6 19
100 -6 19
101 -6 19
102 -6 19
103 -6 19
104 -2 -9
105 -2 -9
106 -2 -9
107 -2 -9
108 -2 -9
109 -43 -23
110 -43 -23
111 -43 -23
112 -43 -23
113 -43 -23
114 -43 -11
115 -43 -11
116 -43 -11
117 -43 -11
118 -43 -11
119 -43 -11
120 28 -31
121 28 -31
122 28 -31
123 28 -31
124 -50 -10
125 -50 -10
126 -50 -10
127 -50 -10
128 -7 29
129 -7 29
130 -7 29
131 45 48
132 45 48
133 45 48
134 45 48
135 -26 -12
136 -26 -12
137 -26 -12
138 -26 -12
139 -26 -12
140 -26 -12
141 -12 14
142 -12 14
143 -12 14
144 41 -7
145 41 -7
146 -30 -16
147 -30 -16
148 -30 -16
149 -30 -16
150 -30 -16
151 -39 -4
152 -39 -4
153 -39 -4
154 -39 -4
155 -39 -4
156 -6 -23
157 -6 -23
158 -6 -23
159 -6 -23
160 -6 -23
161 -6 -23
162 -6 -23
163 47 39
164 47 39
165 47 39
166 47 39
167 47 39
168 47 39
169 47 39
170 -22 -13
171 -1 -31
172 -1 -31
173 24 30
174 24 30
175 24 30
176 24 30
177 24 30
178 -15 46
179 -15 46
180 -15 46
181 -15 46
182 -15 46
183 9 -47
184 9 -47
185 9 -47
186 9 -47
187 -46 47
188 -46 47
189 -46 47
190 -46 47
191 -46 47
192 -46 47
193 35 -17
194 35 -17
195 35 -17
196 35 -17
197 35 -17
198 -28 43
199 -28 43
200 -28 43
201 -28 43
202 -28 43
203 -28 43
204 -28 43
205 -39 -41
206 -39 -41
207 -39 -41
208 -39 -41
209 -39 -41
210 2 -36
211 2 -36
212 2 -36
213 2 -36
214 2 -36
215 -10 -48
216 -10 -48
217 -10 -48
218 -10 -48
219 -10 -48
220 -10 -48
221 -10 -48
222 -10 -48
223 -12 -21
224 -12 -21
225 -12 -21
226 -12 -21
227 -12 -21
228 -12 -21
229 11 -35
230 11 -35
231 11 -35
232 11 -35
233 11 -35
234 2 13
235 2 13
236 2 13
237 2 13
238 2 13
239 2 13
240 6 -3
241 6 -3
242 6 -3
243 6 -3
244 6 -3
245 6 -3
246 -48 34
247 -48 34
248 -48 34
249 -48 34
250 -48 34
251 -48 34
252 -48 34
253 43 -9
254 43 -9
255 43 -9
256 43 -9
257 43 -9
258 -12 4
259 -12 4
260 -12 4
261 -12 4
262 -12 4
263 -50 32
264 -50 32
265 -50 32
266 -50 32
267 11 -2
268 11 -2
269 11 -2
270 42 -18
271 42 -18
272 42 -18
273 3 -39
274 3 -39
275 3 -39
276 3 -39
277 3 -39
278 3 -39
279 3 -39
280 -42 -14
281 -42 -14
282 -42 -14
283 -42 -14
284 -24 36
285 -24 36
286 -24 36
287 -24 36
288 20 30
289 20 30
290 20 30
291 20 30
292 21 50
293 21 50
294 21 50
295 15 39
296 15 39
297 15 39
298 15 39
299 15 39
300 15 39
301 -2 -26
302 -2 -26
303 -2 -26
304 -2 -26
305 -2 -26
306 -2 -26
307 -29 -48
308 -29 -48
309 -29 -48
310 -29 -48
311 22 43
312 22 43
313 22 43
314 22 43
315 22 43
316 22 43
317 22 43
318 22 43
319 17 -11
320 17 -11
321 17 -11
322 17 -11
323 17 -11
324 17 -11
325 24 -25
326 24 -25
327 24 -25
328 46 -24
329 46 -24
330 46 -24
331 46 -24
332 46 -24
333 46 -24
334 46 -24
335 45 -42
336 45 -42
337 45 -42
338 45 -42
339 45 -42
340 45 -42
341 45 -42
342 -22 -34
343 -22 -34
344 -22 -34
345 -22 -34
346 -22 -34
347 -22 -34
348 -22 -34
349 -33 -50
350 -33 -50
351 -33 -50
352 -33 -50
353 29 48
354 29 48
355 29 48
356 29 48
357 28 -10
358 28 -10
359 11 17
360 11 17
361 44 19
362 44 19
363 44 19
364 44 19
365 44 19
366 44 19
367 -33 0
368 -33 0
369 -33 0
370 -33 0
371 -33 0
DEMAND_SECTION
1 0
2 140
3 14
4 14
5 12
6 280
7 280
8 70
9 280
10 280
11 70
12 14
13 14
14 2
15 280
16 140
17 14
18 6
19 140
20 70
21 14
22 14
23 14
24 8
25 280
26 280
27 70
28 14
29 14
30 12
31 140
32 14
33 14
34 14
35 8
36 280
37 280
38 14
39 14
40 14
41 8
42 280
43 140
44 70
45 14
46 14
47 2
48 280
49 140
50 70
51 14
52 14
53 14
54 8
55 140
56 70
57 10
58 280
59 14
60 14
61 12
62 280
63 140
64 70
65 14
66 14
67 2
68 280
69 14
70 14
71 14
72 8
73 280
74 140
75 70
76 14
77 14
78 12
79 140
80 70
81 14
82 14
83 12
84 280
85 280
86 14
87 14
88 2
89 140
90 14
91 14
92 2
93 280
94 280
95 70
96 14
97 6
98 280
99 140
100 70
101 14
102 14
103 2
104 280
105 140
106 14
107 14
108 12
109 140
110 70
111 14
112 14
113 2
114 140
115 14
116 14
117 14
118 14
119 4
120 140
121 14
122 14
123 12
124 140
125 14
126 14
127 12
128 280
129 140
130 10
131 280
132 14
133 14
134 12
135 280
136 280
137 70
138 14
139 14
140 12
141 280
142 140
143 10
144 280
145 70
146 280
147 140
148 14
149 14
150 12
151 280
152 280
153 14
154 14
155 2
156 280
157 280
158 14
159 14
160 14
161 14
162 4
163 280
164 280
165 70
166 14
167 14
168 14
169 8
170 280
171 280
172 280
173 280
174 280
175 70
176 14
177 6
178 280
179 140
180 14
181 14
182 2
183 280
184 280
185 14
186 6
187 280
188 140
189 70
190 14
191 14
192 2
193 280
194 280
195 14
196 14
197 2
198 140
199 70
200 14
201 14
202 14
203 14
204 4
205 280
206 140
207 14
208 14
209 2
210 280
211 70
212 14
213 14
214 12
215 280
216 280
217 70
218 14
219 14
220 14
221 14
222 4
223 280
224 280
225 70
226 14
227 14
228 2
229 280
230 70
231 14
232 14
233 2
234 280
235 140
236 70
237 14
238 14
239 2
240 140
241 70
242 14
243 14
244 14
245 8
246 280
247 140
248 14
249 14
250 14
251 14
252 4
253 280
254 280
255 14
256 14
257 12
258 280
259 140
260 70
261 14
262 6
263 140
264 70
265 14
266 6
267 280
268 140
269 10
270 280
271 140
272 10
273 280
274 280
275 70
276 14
277 14
278 14
279 8
280 140
281 14
282 14
283 12
284 280
285 14
286 14
287 2
288 140
289 14
290 14
291 2
292 280
293 70
294 10
295 280
296 280
297 70
298 14
299 14
300 12
301 140
302 14
303 14
304 14
305 14
306 4
307 280
308 70
309 14
310 6
311 280
312 140
313 70
314 14
315 14
316 14
317 14
318 4
319 140
320 70
321 14
322 14
323 14
324 8
325 280
326 140
327 10
328 280
329 280
330 70
331 14
332 14
333 14
334 8
335 140
336 70
337 14
338 14
339 14
340 14
341 4
342 140
343 70
344 14
345 14
346 14
347 14
348 4
349 280
350 14
351 14
352 2
353 280
354 14
355 14
356 2
357 280
358 140
359 280
360 140
361 280
362 70
363 14
364 14
365 14
366 8
367 280
368 280
369 70
370 14
371 6
DEPOT_SECTION
1
-1
EOF