SDVRP instances/custom_instances/p02_2_splitx10_0.sol
370 -3 4 2 1 165 167 166 168 162 164 163 132 130 131 133 90 91 89 88 -8 207 205 204 208 206 64 66 65 61 63 62 -11 9 12 10 13 7 5 6 349 350 351 348 -21 18 23 22 19 20 78 17 15 16 14 178 179 177 181 180 129 -26 28 25 24 29 27 306 308 307 309 347 345 346 342 343 344 341 -31 34 32 33 30 75 73 76 77 74 72 368 367 369 366 370 -40 39 36 37 38 35 247 248 251 250 246 245 249 264 263 265 262 261 259 -69 68 70 71 67 94 92 95 96 93 127 128 -82 79 80 81 283 286 285 284 201 203 199 200 198 202 197 187 189 190 186 191 188 258 260 -87 85 86 84 83 358 359 233 237 236 238 -107 105 104 106 103 169 134 135 -117 115 116 118 113 114 126 123 125 124 279 282 280 281 111 110 109 108 112 148 147 145 149 146 139 138 136 137 -142 140 141 102 99 100 101 98 97 56 54 55 235 234 -143 144 253 255 254 252 256 357 356 -152 154 153 150 151 43 41 44 42 45 46 257 -155 301 303 305 302 300 304 170 171 318 320 322 321 239 -161 159 157 158 160 156 58 57 59 60 223 227 226 222 225 224 -172 173 175 174 176 296 298 297 299 295 294 -211 212 213 210 209 185 184 183 182 232 230 228 231 229 -219 220 216 218 214 215 217 221 275 276 273 277 278 272 274 -241 243 242 244 240 323 319 192 195 196 193 194 119 121 120 122 325 326 324 -267 268 266 51 50 49 47 48 53 52 364 362 363 360 365 361 -271 269 270 333 330 327 332 331 328 329 338 335 337 334 336 339 340 -288 287 289 290 352 354 355 353 293 291 292 317 310 316 314 315 311 312 313 0 





OBJ=
2397.215
BEST_KNOWN=
0.000